000 000 000 000 000 -99 000 000 -99 -99 -99 -99 -99 -99 -99 -99 -99 -99 000 000 000 -99 -99 000 000 000 000 000 -99 -99 000
-99 -99 000 000 000 000 000 000 -99 -99 -99 -99 -99 -99 -99 -99 -99 000 -99 000 000 -99 -99 -99 000 000 000 000 -99 -99 -99
-99 000 000 000 000 000 000 000 000 -99 -99 -99 -99 -99 000 -99 000 000 -99 -99 000 -99 -99 000 000 000 000 000 000 -99 -99
-99 000 000 000 000 000 000 000 000 -99 -99 -99 -99 -99 000 000 -99 -99 -99 000 000 000 000 000 000 -99 000 000 -99 -99 -99
000 000 000 000 000 000 000 000 000 -99 -99 000 000 000 -99 000 -99 -99 -99 -99 000 000 000 000 000 000 000 000 -99 -99 -99
000 000 000 000 000 -99 000 000 000 000 -99 000 000 -99 -99 -99 -99 -99 -99 -99 000 000 000 000 000 -99 -99 -99 -99 -99 -99
000 000 000 000 000 -99 000 000 000 000 -99 -99 000 000 -99 -99 000 000 -99 -99 000 000 000 000 000 -99 -99 -99 -99 -99 -99
000 000 000 000 000 -99 000 000 000 000 -99 -99 000 -99 -99 -99 000 000 000 -99 -99 000 000 -99 000 -99 -99 -99 -99 000 000
000 000 000 000 000 -99 -99 -99 000 000 000 -99 -99 -99 -99 -99 000 000 000 -99 000 -99 -99 -99 000 -99 -99 -99 -99 000 000
000 000 000 000 000 000 -99 -99 -99 000 -99 000 -99 -99 -99 -99 -99 000 000 -99 000 -99 -99 -99 000 -99 -99 -99 -99 000 000
000 000 000 000 000 000 000 000 000 000 000 000 000 -99 -99 -99 000 000 000 -99 -99 -99 -99 -99 -99 -99 -99 -99 000 000 000
000 000 000 000 000 000 000 000 000 000 000 000 000 -99 -99 -99 000 000 000 000 -99 -99 -99 000 -99 -99 -99 -99 000 000 000
000 000 000 000 000 000 000 000 000 000 000 000 000 -99 -99 -99 -99 000 000 -99 -99 -99 -99 000 000 000 -99 -99 000 000 000
000 000 000 000 000 000 000 000 000 -99 000 000 000 -99 -99 -99 -99 000 000 -99 -99 -99 -99 000 000 000 000 000 000 000 000
000 -99 -99 -99 000 000 000 000 000 -99 -99 -99 -99 000 000 000 000 000 000 -99 -99 -99 -99 000 000 000 000 000 000 000 000
000 -99 000 -99 000 000 000 000 000 -99 -99 -99 -99 000 000 000 000 -99 -99 -99 -99 -99 -99 000 000 000 000 000 000 000 000
-99 -99 -99 -99 000 000 000 000 000 -99 -99 -99 -99 000 000 000 000 -99 -99 -99 -99 -99 000 000 000 000 000 000 000 000 -99
000 000 000 -99 -99 -99 000 000 000 000 -99 -99 -99 -99 -99 000 000 000 -99 -99 -99 -99 000 000 000 000 -99 -99 000 000 -99
000 000 000 000 -99 -99 000 000 000 000 -99 -99 -99 -99 -99 000 000 000 000 -99 -99 000 000 000 000 -99 -99 -99 000 000 000
000 000 000 000 -99 -99 000 000 000 000 000 000 -99 -99 -99 000 000 000 000 -99 -99 000 000 -99 -99 -99 -99 -99 000 000 000
000 000 000 000 000 -99 -99 000 000 000 -99 -99 -99 -99 -99 000 000 -99 000 000 -99 000 000 -99 -99 -99 -99 -99 -99 -99 -99
000 000 000 000 000 000 -99 000 000 000 -99 -99 -99 -99 -99 000 000 -99 000 000 000 000 000 -99 -99 -99 -99 -99 -99 -99 -99
000 000 000 000 000 000 000 000 000 000 -99 -99 -99 -99 000 000 000 000 000 000 000 000 000 -99 -99 -99 -99 -99 -99 -99 -99
000 000 000 000 000 000 000 000 000 -99 -99 -99 -99 -99 000 000 000 000 000 000 000 000 000 -99 -99 -99 -99 -99 -99 -99 -99
000 000 000 000 000 000 000 000 000 -99 -99 -99 -99 000 000 000 000 000 000 000 000 000 -99 -99 -99 -99 -99 -99 -99 -99 -99
000 000 000 000 000 000 000 000 000 000 -99 -99 -99 -99 000 000 000 000 000 000 000 -99 -99 -99 -99 -99 -99 -99 -99 -99 -99
000 000 000 000 000 000 000 000 000 000 000 -99 -99 000 000 000 000 000 000 000 000 000 000 -99 -99 -99 -99 -99 -99 -99 -99
000 000 000 000 000 000 000 000 000 000 -99 -99 -99 -99 000 000 000 000 -99 -99 000 000 000 -99 -99 -99 -99 -99 -99 -99 000
000 000 000 000 000 000 000 000 000 000 000 -99 -99 000 000 000 000 000 000 000 000 000 -99 -99 -99 -99 -99 -99 -99 -99 000
000 000 000 000 000 000 000 000 000 000 000 -99 -99 -99 000 000 000 000 000 000 000 000 -99 -99 -99 -99 -99 -99 -99 -99 000
000 000 000 000 000 000 000 000 000 000 000 -99 -99 000 000 000 000 000 000 000 000 -99 -99 -99 -99 -99 -99 -99 -99 -99 000
000 000 000 000 000 000 000 000 000 -99 -99 -99 -99 000 000 -99 000 000 000 -99 -99 -99 -99 -99 -99 -99 -99 -99 -99 -99 000
000 000 000 000 000 000 000 000 000 000 -99 -99 -99 000 000 -99 000 000 000 -99 -99 -99 -99 -99 -99 -99 -99 000 000 000 000
000 000 000 000 000 000 000 000 000 000 -99 -99 -99 000 000 000 000 000 000 -99 -99 -99 -99 -99 -99 000 000 000 000 000 000
000 000 000 000 000 000 000 000 000 000 000 -99 -99 -99 000 000 000 000 -99 -99 000 -99 000 000 000 000 000 000 000 000 000
000 000 000 000 000 000 000 000 000 000 000 -99 000 000 000 000 000 000 000 000 000 000 000 000 000 000 000 000 000 000 000
000 000 -99 000 000 000 -99 000 000 000 -99 -99 000 000 000 000 000 000 000 000 000 000 000 000 000 000 000 000 000 000 000
000 -99 000 000 000 -99 -99 000 000 -99 -99 -99 000 000 000 000 000 000 000 000 000 000 000 000 000 000 000 000 000 000 000
000 000 000 000 000 000 -99 -99 -99 -99 -99 -99 000 000 000 000 000 000 000 000 000 000 -99 000 000 000 000 000 000 000 000
000 000 000 000 000 -99 -99 -99 -99 -99 -99 000 000 000 000 000 000 000 -99 000 000 000 000 000 000 000 000 000 000 000 -99
-99 000 000 000 000 -99 -99 -99 -99 -99 000 000 000 000 -99 000 000 -99 -99 000 000 000 000 000 000 000 000 000 000 -99 -99
-99 000 -99 -99 -99 -99 -99 -99 -99 -99 000 000 000 000 000 000 -99 -99 -99 000 000 -99 000 000 000 000 -99 -99 -99 -99 -99
000 000 -99 -99 -99 -99 -99 -99 -99 -99 000 000 000 000 -99 000 000 000 000 000 000 000 000 000 000 000 -99 -99 -99 -99 -99
000 -99 -99 -99 -99 -99 -99 -99 -99 -99 -99 000 000 000 -99 -99 000 000 000 000 000 000 000 000 000 000 -99 -99 -99 -99 000
000 000 -99 -99 -99 -99 -99 -99 -99 -99 -99 000 000 000 000 000 000 000 000 000 000 000 000 -99 000 -99 -99 -99 -99 -99 -99
000 -99 -99 -99 -99 -99 -99 -99 -99 -99 -99 000 000 000 000 000 000 000 -99 000 000 000 -99 -99 -99 -99 -99 -99 -99 -99 000
000 -99 -99 -99 -99 -99 -99 -99 -99 000 -99 000 000 000 000 000 -99 000 -99 000 000 000 -99 -99 -99 -99 -99 -99 -99 -99 -99
-99 -99 -99 -99 000 000 -99 -99 000 000 -99 -99 -99 -99 -99 -99 -99 000 000 000 000 000 -99 -99 000 000 -99 -99 -99 -99 -99
-99 -99 -99 -99 000 000 -99 -99 000 -99 -99 -99 -99 -99 -99 -99 -99 000 000 000 000 000 -99 000 000 000 -99 000 -99 -99 -99
-99 -99 -99 -99 -99 000 -99 -99 -99 -99 -99 -99 -99 -99 -99 -99 000 000 000 003 000 000 -99 -99 -99 -99 -99 000 000 -99 -99
-99 -99 -99 -99 -99 -99 -99 -99 -99 -99 -99 -99 -99 -99 -99 -99 000 000 010 001 000 000 -99 -99 -99 -99 000 -99 000 -99 -99
-99 -99 -99 -99 -99 -99 -99 -99 -99 -99 -99 -99 -99 -99 -99 000 000 001 004 000 -99 -99 -99 -99 -99 -99 -99 -99 -99 -99 -99
-99 -99 -99 -99 -99 -99 000 -99 -99 -99 -99 -99 -99 -99 -99 000 000 001 001 000 -99 -99 -99 -99 -99 -99 -99 -99 -99 -99 -99
-99 -99 -99 -99 -99 000 000 -99 -99 -99 -99 -99 -99 -99 -99 000 000 000 -99 -99 -99 -99 -99 -99 -99 -99 -99 -99 -99 -99 -99
-99 -99 -99 -99 -99 -99 -99 -99 -99 -99 -99 -99 -99 -99 000 000 000 -99 -99 -99 -99 001 001 001 -99 -99 -99 -99 -99 -99 -99
